NAME : single
TYPE : ATSP
DIMENSION : 11
EDGE_WEIGHT_TYPE : EXPLICIT
EDGE_WEIGHT_FORMAT : FULL_MATRIX
EDGE_WEIGHT_SECTION
0 357 546 457 365 331 535 361 389 375 427 
0 0 220 179 27 202 235 77 76 26 95 
0 220 0 97 234 241 53 211 169 214 127 
0 179 97 0 196 295 84 179 177 187 192 
0 27 234 196 0 205 271 75 74 20 138 
0 202 241 295 205 0 262 176 167 196 175 
0 235 53 84 271 262 0 229 183 233 150 
0 77 211 179 75 176 229 0 51 68 94 
0 76 169 177 74 167 183 51 0 67 45 
0 26 214 187 20 196 233 68 67 0 125 
0 95 127 192 138 175 150 94 45 125 0 
EOF